79 80
14 45 1
81 33 1
100 21 1
16 4 1
75 50 1
74 3 1
69 32 1
12 86 1
83 16 1
14 90 1
81 4 1
78 18 1
99 45 1
84 28 1
1 38 1
38 77 1
88 34 1
67 34 1
94 34 1
19 28 1
78 85 1
92 50 1
96 41 1
12 66 1
91 49 1
91 29 1
70 10 1
76 35 1
55 73 1
97 69 1
88 40 1
81 81 1
91 10 1
79 21 1
20 88 1
72 39 1
80 57 1
67 35 1
78 37 1
99 8 1
90 18 2
98 10 1
86 2 1
49 39 1
66 39 1
53 97 1
51 79 1
74 32 1
29 23 1
81 45 1
91 36 1
79 17 1
67 5 1
80 68 1
22 67 1
79 24 1
96 27 1
92 31 1
79 30 1
89 42 1
99 11 1
56 54 1
85 19 1
71 22 1
74 6 1
91 41 1
100 20 1
44 13 1
40 13 1
86 38 1
88 33 1
95 16 1
28 31 1
88 47 1
84 7 1
67 31 1
85 11 1
99 18 1
88 43 1
100 100 
100 100 
100 100 
100 100 
100 100 
100 100 
100 100 
100 100 
100 100 
100 100 
100 100 
100 100 
100 100 
100 100 
100 100 
100 100 
100 100 
100 100 
100 100 
100 100 
100 100 
100 100 
100 100 
100 100 
100 100 
100 100 
100 100 
100 100 
100 100 
100 100 
100 100 
100 100 
100 100 
100 100 
100 100 
100 100 
100 100 
100 100 
100 100 
100 100 
100 100 
100 100 
100 100 
100 100 
100 100 
100 100 
100 100 
100 100 
100 100 
100 100 
100 100 
100 100 
100 100 
100 100 
100 100 
100 100 
100 100 
100 100 
100 100 
100 100 
100 100 
100 100 
100 100 
100 100 
100 100 
100 100 
100 100 
100 100 
100 100 
100 100 
100 100 
100 100 
100 100 
100 100 
100 100 
100 100 
100 100 
100 100 
100 100 
100 100 
